instances/knapsack/discrete/knapsack_70_8.lp
\ Model knapsack_70_8
\ LP format - for model browsing. Use MPS format to capture full model detail.
\ Signature: 0x9699bb600e1f4c54
Minimize
  - 100 x[0] - 76 x[1] - 2 x[2] - 70 x[3] - 99 x[4] - 75 x[5] - 63 x[6]
   - 37 x[7] - 72 x[8] - 64 x[9] - 69 x[10] - 61 x[11] - 41 x[12]
   - 76 x[13] - 89 x[14] - 62 x[15] - 64 x[16] - 24 x[17] - 44 x[18]
   - 91 x[19] - 39 x[20] - 37 x[21] - 90 x[22] - 10 x[23] - 23 x[24]
   - 16 x[25] - 62 x[26] - 85 x[27] - 48 x[28] - 58 x[29] - 87 x[30]
   - 54 x[31] - 30 x[32] - 13 x[33] - 29 x[34] - 87 x[35] - 7 x[36]
   - 33 x[37] - 20 x[38] - 29 x[39] - 66 x[40] - 51 x[41] - 47 x[42]
   - 93 x[43] - 100 x[44] - 5 x[45] - 94 x[46] - 74 x[47] - 74 x[48]
   - 31 x[49] - 97 x[50] - 32 x[51] - 85 x[52] - 95 x[53] - 66 x[54]
   - 4 x[55] - 52 x[56] - 62 x[57] - 98 x[58] - 93 x[59] - 98 x[60]
   - 64 x[61] - 7 x[62] - 63 x[63] - 24 x[64] - 15 x[65] - 39 x[66]
   - 15 x[67] - 70 x[68] - 51 x[69]
Subject To
 primal_upper: 7 x[0] + 16 x[1] + 98 x[2] + 67 x[3] + 84 x[4] + 49 x[5]
   + 49 x[6] + 23 x[7] + 61 x[8] + 50 x[9] + 51 x[10] + 15 x[11] + 56 x[12]
   + 100 x[13] + 8 x[14] + 12 x[15] + 49 x[16] + 80 x[17] + 29 x[18]
   + 30 x[19] + 77 x[20] + 19 x[21] + 24 x[22] + 58 x[23] + 32 x[24]
   + 72 x[25] + 22 x[26] + 7 x[27] + 29 x[28] + 31 x[29] + 69 x[30]
   + 83 x[31] + 19 x[32] + 85 x[33] + 92 x[34] + 45 x[35] + 76 x[36]
   + 24 x[37] + 40 x[38] + 90 x[39] + 83 x[40] + 77 x[41] + 10 x[42]
   + 33 x[43] + 59 x[44] + 70 x[45] + 37 x[46] + 73 x[47] + 7 x[48]
   + 92 x[49] + 94 x[50] + 96 x[51] + 29 x[52] + 16 x[53] + 56 x[54]
   + 27 x[55] + 93 x[56] + 6 x[57] + 64 x[58] + 50 x[59] + 28 x[60]
   + 46 x[61] + 27 x[62] + 46 x[63] + 39 x[64] + 52 x[65] + 96 x[66]
   + 82 x[67] + 44 x[68] + 85 x[69] + 0.7 r[0] + 1.6 r[1] + 9.8 r[2]
   + 6.7 r[3] + 8.4 r[4] + 4.9 r[5] + 4.9 r[6] + 2.3 r[7] + 6.1 r[8]
   + 5 r[9] + 5.1 r[10] + 1.5 r[11] + 5.6 r[12] + 10 r[13] + 0.8 r[14]
   + 1.2 r[15] + 4.9 r[16] + 8 r[17] + 2.9 r[18] + 3 r[19] + 7.7 r[20]
   + 1.9 r[21] + 2.4 r[22] + 5.8 r[23] + 3.2 r[24] + 7.2 r[25] + 2.2 r[26]
   + 0.7 r[27] + 2.9 r[28] + 3.1 r[29] + 6.9 r[30] + 8.3 r[31] + 1.9 r[32]
   + 8.5 r[33] + 9.2 r[34] + 4.5 r[35] + 7.6 r[36] + 2.4 r[37] + 4 r[38]
   + 9 r[39] + 8.3 r[40] + 7.7 r[41] + r[42] + 3.3 r[43] + 5.9 r[44]
   + 7 r[45] + 3.7 r[46] + 7.3 r[47] + 0.7 r[48] + 9.2 r[49] + 9.4 r[50]
   + 9.6 r[51] + 2.9 r[52] + 1.6 r[53] + 5.6 r[54] + 2.7 r[55] + 9.3 r[56]
   + 0.6 r[57] + 6.4 r[58] + 5 r[59] + 2.8 r[60] + 4.6 r[61] + 2.7 r[62]
   + 4.6 r[63] + 3.9 r[64] + 5.2 r[65] + 9.6 r[66] + 8.2 r[67] + 4.4 r[68]
   + 8.5 r[69] <= 337
 primal_lower: 0.3525766181874357 x[0] + 1.617923689060663 x[1]
   + 1.14406866375426 x[2] + 0.2657581053881168 x[3]
   + 3.042290798284195 x[4] + 3.522019968392044 x[5]
   + 2.907810161996068 x[6] + 2.950927935476126 x[7]
   + 0.4912807539057663 x[8] + 1.322190852952396 x[9]
   + 3.07869731512926 x[10] + 4.023543176250111 x[11]
   + 2.655737055015381 x[12] + 3.213357558637287 x[13]
   + 4.287036634122251 x[14] + 4.415924941669823 x[15]
   + 2.86044827968826 x[16] + 2.853848431524432 x[17]
   + 0.9792671694479198 x[18] + 2.987098234958257 x[19]
   + 2.792775199266412 x[20] + 1.429070795823652 x[21]
   + 0.4768468421874055 x[22] + 1.201219731482853 x[23]
   + 2.8257176885996 x[24] + 0.1192735086347959 x[25]
   + 2.611108207422544 x[26] + 4.15423917413303 x[27]
   + 2.163140780551009 x[28] + 3.734531177552787 x[29]
   + 2.310513949465956 x[30] + 0.8559431123303273 x[31]
   + 1.168605424223445 x[32] + 3.314629238598449 x[33]
   + 3.008505355993388 x[34] + 1.258295516699044 x[35]
   + 3.557439150233705 x[36] + 2.301291982919057 x[37]
   + 2.953439766394903 x[38] + 1.100745558501168 x[39]
   + 1.064461552617719 x[40] + 1.830097638951183 x[41]
   + 3.692991423407081 x[42] + 3.415606278180854 x[43]
   + 3.143607036895255 x[44] + 1.388641374252049 x[45]
   + 1.749338239342396 x[46] + 3.974556065594518 x[47]
   + 2.288627929499777 x[48] + 0.3127775384177249 x[49]
   + 4.429091986570914 x[50] + 3.989693843545028 x[51]
   + 0.1347558997894336 x[52] + 1.058073323921078 x[53]
   + 3.661880495150209 x[54] + 0.2944547947161748 x[55]
   + 2.323274529643674 x[56] + 2.527021660548626 x[57]
   + 4.422553935256564 x[58] + 3.318301806162044 x[59]
   + 4.46227676310413 x[60] + 2.567460719612061 x[61]
   + 3.834003769993195 x[62] + 3.88745091707359 x[63]
   + 2.173728684735848 x[64] + 1.963991060282922 x[65]
   + 1.373938646464644 x[66] + 3.512379304567148 x[67]
   + 0.2518091642175201 x[68] + 3.340803390022656 x[69] + 80 u[0] + 33 u[1]
   + 91 u[2] + 8 u[3] + 9 u[4] + 18 u[5] + 46 u[6] + 64 u[7] + 94 u[8]
   + 19 u[9] + 20 u[10] + 76 u[11] + 81 u[12] + 73 u[13] + 65 u[14]
   + 57 u[15] + 14 u[16] + 45 u[17] + 86 u[18] + 71 u[19] + 6 u[20]
   + 16 u[21] + 25 u[22] + 71 u[23] + 9 u[24] + 29 u[25] + 59 u[26]
   + 24 u[27] + 18 u[28] + 92 u[29] + 90 u[30] + 52 u[31] + 16 u[32]
   + 66 u[33] + 57 u[34] + 46 u[35] + 49 u[36] + 9 u[37] + 13 u[38]
   + 95 u[39] + 36 u[40] + 50 u[41] + 75 u[42] + 42 u[43] + 8 u[44]
   + 43 u[45] + 98 u[46] + 14 u[47] + 64 u[48] + 21 u[49] + 27 u[50]
   + 81 u[51] + 66 u[52] + 13 u[53] + 97 u[54] + 60 u[55] + 22 u[56]
   + 63 u[57] + 9 u[58] + 55 u[59] + 5 u[60] + 7 u[61] + 64 u[62]
   + 23 u[63] + 64 u[64] + 85 u[65] + u[66] + 39 u[67] + 85 u[68]
   + 86 u[69] <= 74655
 mccormick1[0]: - u[0] + r[0] <= 0
 mccormick1[1]: - u[1] + r[1] <= 0
 mccormick1[2]: - u[2] + r[2] <= 0
 mccormick1[3]: - u[3] + r[3] <= 0
 mccormick1[4]: - u[4] + r[4] <= 0
 mccormick1[5]: - u[5] + r[5] <= 0
 mccormick1[6]: - u[6] + r[6] <= 0
 mccormick1[7]: - u[7] + r[7] <= 0
 mccormick1[8]: - u[8] + r[8] <= 0
 mccormick1[9]: - u[9] + r[9] <= 0
 mccormick1[10]: - u[10] + r[10] <= 0
 mccormick1[11]: - u[11] + r[11] <= 0
 mccormick1[12]: - u[12] + r[12] <= 0
 mccormick1[13]: - u[13] + r[13] <= 0
 mccormick1[14]: - u[14] + r[14] <= 0
 mccormick1[15]: - u[15] + r[15] <= 0
 mccormick1[16]: - u[16] + r[16] <= 0
 mccormick1[17]: - u[17] + r[17] <= 0
 mccormick1[18]: - u[18] + r[18] <= 0
 mccormick1[19]: - u[19] + r[19] <= 0
 mccormick1[20]: - u[20] + r[20] <= 0
 mccormick1[21]: - u[21] + r[21] <= 0
 mccormick1[22]: - u[22] + r[22] <= 0
 mccormick1[23]: - u[23] + r[23] <= 0
 mccormick1[24]: - u[24] + r[24] <= 0
 mccormick1[25]: - u[25] + r[25] <= 0
 mccormick1[26]: - u[26] + r[26] <= 0
 mccormick1[27]: - u[27] + r[27] <= 0
 mccormick1[28]: - u[28] + r[28] <= 0
 mccormick1[29]: - u[29] + r[29] <= 0
 mccormick1[30]: - u[30] + r[30] <= 0
 mccormick1[31]: - u[31] + r[31] <= 0
 mccormick1[32]: - u[32] + r[32] <= 0
 mccormick1[33]: - u[33] + r[33] <= 0
 mccormick1[34]: - u[34] + r[34] <= 0
 mccormick1[35]: - u[35] + r[35] <= 0
 mccormick1[36]: - u[36] + r[36] <= 0
 mccormick1[37]: - u[37] + r[37] <= 0
 mccormick1[38]: - u[38] + r[38] <= 0
 mccormick1[39]: - u[39] + r[39] <= 0
 mccormick1[40]: - u[40] + r[40] <= 0
 mccormick1[41]: - u[41] + r[41] <= 0
 mccormick1[42]: - u[42] + r[42] <= 0
 mccormick1[43]: - u[43] + r[43] <= 0
 mccormick1[44]: - u[44] + r[44] <= 0
 mccormick1[45]: - u[45] + r[45] <= 0
 mccormick1[46]: - u[46] + r[46] <= 0
 mccormick1[47]: - u[47] + r[47] <= 0
 mccormick1[48]: - u[48] + r[48] <= 0
 mccormick1[49]: - u[49] + r[49] <= 0
 mccormick1[50]: - u[50] + r[50] <= 0
 mccormick1[51]: - u[51] + r[51] <= 0
 mccormick1[52]: - u[52] + r[52] <= 0
 mccormick1[53]: - u[53] + r[53] <= 0
 mccormick1[54]: - u[54] + r[54] <= 0
 mccormick1[55]: - u[55] + r[55] <= 0
 mccormick1[56]: - u[56] + r[56] <= 0
 mccormick1[57]: - u[57] + r[57] <= 0
 mccormick1[58]: - u[58] + r[58] <= 0
 mccormick1[59]: - u[59] + r[59] <= 0
 mccormick1[60]: - u[60] + r[60] <= 0
 mccormick1[61]: - u[61] + r[61] <= 0
 mccormick1[62]: - u[62] + r[62] <= 0
 mccormick1[63]: - u[63] + r[63] <= 0
 mccormick1[64]: - u[64] + r[64] <= 0
 mccormick1[65]: - u[65] + r[65] <= 0
 mccormick1[66]: - u[66] + r[66] <= 0
 mccormick1[67]: - u[67] + r[67] <= 0
 mccormick1[68]: - u[68] + r[68] <= 0
 mccormick1[69]: - u[69] + r[69] <= 0
 mccormick2[0]: - x[0] + r[0] <= 0
 mccormick2[1]: - x[1] + r[1] <= 0
 mccormick2[2]: - x[2] + r[2] <= 0
 mccormick2[3]: - x[3] + r[3] <= 0
 mccormick2[4]: - x[4] + r[4] <= 0
 mccormick2[5]: - x[5] + r[5] <= 0
 mccormick2[6]: - x[6] + r[6] <= 0
 mccormick2[7]: - x[7] + r[7] <= 0
 mccormick2[8]: - x[8] + r[8] <= 0
 mccormick2[9]: - x[9] + r[9] <= 0
 mccormick2[10]: - x[10] + r[10] <= 0
 mccormick2[11]: - x[11] + r[11] <= 0
 mccormick2[12]: - x[12] + r[12] <= 0
 mccormick2[13]: - x[13] + r[13] <= 0
 mccormick2[14]: - x[14] + r[14] <= 0
 mccormick2[15]: - x[15] + r[15] <= 0
 mccormick2[16]: - x[16] + r[16] <= 0
 mccormick2[17]: - x[17] + r[17] <= 0
 mccormick2[18]: - x[18] + r[18] <= 0
 mccormick2[19]: - x[19] + r[19] <= 0
 mccormick2[20]: - x[20] + r[20] <= 0
 mccormick2[21]: - x[21] + r[21] <= 0
 mccormick2[22]: - x[22] + r[22] <= 0
 mccormick2[23]: - x[23] + r[23] <= 0
 mccormick2[24]: - x[24] + r[24] <= 0
 mccormick2[25]: - x[25] + r[25] <= 0
 mccormick2[26]: - x[26] + r[26] <= 0
 mccormick2[27]: - x[27] + r[27] <= 0
 mccormick2[28]: - x[28] + r[28] <= 0
 mccormick2[29]: - x[29] + r[29] <= 0
 mccormick2[30]: - x[30] + r[30] <= 0
 mccormick2[31]: - x[31] + r[31] <= 0
 mccormick2[32]: - x[32] + r[32] <= 0
 mccormick2[33]: - x[33] + r[33] <= 0
 mccormick2[34]: - x[34] + r[34] <= 0
 mccormick2[35]: - x[35] + r[35] <= 0
 mccormick2[36]: - x[36] + r[36] <= 0
 mccormick2[37]: - x[37] + r[37] <= 0
 mccormick2[38]: - x[38] + r[38] <= 0
 mccormick2[39]: - x[39] + r[39] <= 0
 mccormick2[40]: - x[40] + r[40] <= 0
 mccormick2[41]: - x[41] + r[41] <= 0
 mccormick2[42]: - x[42] + r[42] <= 0
 mccormick2[43]: - x[43] + r[43] <= 0
 mccormick2[44]: - x[44] + r[44] <= 0
 mccormick2[45]: - x[45] + r[45] <= 0
 mccormick2[46]: - x[46] + r[46] <= 0
 mccormick2[47]: - x[47] + r[47] <= 0
 mccormick2[48]: - x[48] + r[48] <= 0
 mccormick2[49]: - x[49] + r[49] <= 0
 mccormick2[50]: - x[50] + r[50] <= 0
 mccormick2[51]: - x[51] + r[51] <= 0
 mccormick2[52]: - x[52] + r[52] <= 0
 mccormick2[53]: - x[53] + r[53] <= 0
 mccormick2[54]: - x[54] + r[54] <= 0
 mccormick2[55]: - x[55] + r[55] <= 0
 mccormick2[56]: - x[56] + r[56] <= 0
 mccormick2[57]: - x[57] + r[57] <= 0
 mccormick2[58]: - x[58] + r[58] <= 0
 mccormick2[59]: - x[59] + r[59] <= 0
 mccormick2[60]: - x[60] + r[60] <= 0
 mccormick2[61]: - x[61] + r[61] <= 0
 mccormick2[62]: - x[62] + r[62] <= 0
 mccormick2[63]: - x[63] + r[63] <= 0
 mccormick2[64]: - x[64] + r[64] <= 0
 mccormick2[65]: - x[65] + r[65] <= 0
 mccormick2[66]: - x[66] + r[66] <= 0
 mccormick2[67]: - x[67] + r[67] <= 0
 mccormick2[68]: - x[68] + r[68] <= 0
 mccormick2[69]: - x[69] + r[69] <= 0
 mccormick3[0]: x[0] + u[0] - r[0] <= 1
 mccormick3[1]: x[1] + u[1] - r[1] <= 1
 mccormick3[2]: x[2] + u[2] - r[2] <= 1
 mccormick3[3]: x[3] + u[3] - r[3] <= 1
 mccormick3[4]: x[4] + u[4] - r[4] <= 1
 mccormick3[5]: x[5] + u[5] - r[5] <= 1
 mccormick3[6]: x[6] + u[6] - r[6] <= 1
 mccormick3[7]: x[7] + u[7] - r[7] <= 1
 mccormick3[8]: x[8] + u[8] - r[8] <= 1
 mccormick3[9]: x[9] + u[9] - r[9] <= 1
 mccormick3[10]: x[10] + u[10] - r[10] <= 1
 mccormick3[11]: x[11] + u[11] - r[11] <= 1
 mccormick3[12]: x[12] + u[12] - r[12] <= 1
 mccormick3[13]: x[13] + u[13] - r[13] <= 1
 mccormick3[14]: x[14] + u[14] - r[14] <= 1
 mccormick3[15]: x[15] + u[15] - r[15] <= 1
 mccormick3[16]: x[16] + u[16] - r[16] <= 1
 mccormick3[17]: x[17] + u[17] - r[17] <= 1
 mccormick3[18]: x[18] + u[18] - r[18] <= 1
 mccormick3[19]: x[19] + u[19] - r[19] <= 1
 mccormick3[20]: x[20] + u[20] - r[20] <= 1
 mccormick3[21]: x[21] + u[21] - r[21] <= 1
 mccormick3[22]: x[22] + u[22] - r[22] <= 1
 mccormick3[23]: x[23] + u[23] - r[23] <= 1
 mccormick3[24]: x[24] + u[24] - r[24] <= 1
 mccormick3[25]: x[25] + u[25] - r[25] <= 1
 mccormick3[26]: x[26] + u[26] - r[26] <= 1
 mccormick3[27]: x[27] + u[27] - r[27] <= 1
 mccormick3[28]: x[28] + u[28] - r[28] <= 1
 mccormick3[29]: x[29] + u[29] - r[29] <= 1
 mccormick3[30]: x[30] + u[30] - r[30] <= 1
 mccormick3[31]: x[31] + u[31] - r[31] <= 1
 mccormick3[32]: x[32] + u[32] - r[32] <= 1
 mccormick3[33]: x[33] + u[33] - r[33] <= 1
 mccormick3[34]: x[34] + u[34] - r[34] <= 1
 mccormick3[35]: x[35] + u[35] - r[35] <= 1
 mccormick3[36]: x[36] + u[36] - r[36] <= 1
 mccormick3[37]: x[37] + u[37] - r[37] <= 1
 mccormick3[38]: x[38] + u[38] - r[38] <= 1
 mccormick3[39]: x[39] + u[39] - r[39] <= 1
 mccormick3[40]: x[40] + u[40] - r[40] <= 1
 mccormick3[41]: x[41] + u[41] - r[41] <= 1
 mccormick3[42]: x[42] + u[42] - r[42] <= 1
 mccormick3[43]: x[43] + u[43] - r[43] <= 1
 mccormick3[44]: x[44] + u[44] - r[44] <= 1
 mccormick3[45]: x[45] + u[45] - r[45] <= 1
 mccormick3[46]: x[46] + u[46] - r[46] <= 1
 mccormick3[47]: x[47] + u[47] - r[47] <= 1
 mccormick3[48]: x[48] + u[48] - r[48] <= 1
 mccormick3[49]: x[49] + u[49] - r[49] <= 1
 mccormick3[50]: x[50] + u[50] - r[50] <= 1
 mccormick3[51]: x[51] + u[51] - r[51] <= 1
 mccormick3[52]: x[52] + u[52] - r[52] <= 1
 mccormick3[53]: x[53] + u[53] - r[53] <= 1
 mccormick3[54]: x[54] + u[54] - r[54] <= 1
 mccormick3[55]: x[55] + u[55] - r[55] <= 1
 mccormick3[56]: x[56] + u[56] - r[56] <= 1
 mccormick3[57]: x[57] + u[57] - r[57] <= 1
 mccormick3[58]: x[58] + u[58] - r[58] <= 1
 mccormick3[59]: x[59] + u[59] - r[59] <= 1
 mccormick3[60]: x[60] + u[60] - r[60] <= 1
 mccormick3[61]: x[61] + u[61] - r[61] <= 1
 mccormick3[62]: x[62] + u[62] - r[62] <= 1
 mccormick3[63]: x[63] + u[63] - r[63] <= 1
 mccormick3[64]: x[64] + u[64] - r[64] <= 1
 mccormick3[65]: x[65] + u[65] - r[65] <= 1
 mccormick3[66]: x[66] + u[66] - r[66] <= 1
 mccormick3[67]: x[67] + u[67] - r[67] <= 1
 mccormick3[68]: x[68] + u[68] - r[68] <= 1
 mccormick3[69]: x[69] + u[69] - r[69] <= 1
Bounds
Binaries
 x[0] x[1] x[2] x[3] x[4] x[5] x[6] x[7] x[8] x[9] x[10] x[11] x[12] x[13]
 x[14] x[15] x[16] x[17] x[18] x[19] x[20] x[21] x[22] x[23] x[24] x[25]
 x[26] x[27] x[28] x[29] x[30] x[31] x[32] x[33] x[34] x[35] x[36] x[37]
 x[38] x[39] x[40] x[41] x[42] x[43] x[44] x[45] x[46] x[47] x[48] x[49]
 x[50] x[51] x[52] x[53] x[54] x[55] x[56] x[57] x[58] x[59] x[60] x[61]
 x[62] x[63] x[64] x[65] x[66] x[67] x[68] x[69] u[0] u[1] u[2] u[3] u[4]
 u[5] u[6] u[7] u[8] u[9] u[10] u[11] u[12] u[13] u[14] u[15] u[16] u[17]
 u[18] u[19] u[20] u[21] u[22] u[23] u[24] u[25] u[26] u[27] u[28] u[29]
 u[30] u[31] u[32] u[33] u[34] u[35] u[36] u[37] u[38] u[39] u[40] u[41]
 u[42] u[43] u[44] u[45] u[46] u[47] u[48] u[49] u[50] u[51] u[52] u[53]
 u[54] u[55] u[56] u[57] u[58] u[59] u[60] u[61] u[62] u[63] u[64] u[65]
 u[66] u[67] u[68] u[69] r[0] r[1] r[2] r[3] r[4] r[5] r[6] r[7] r[8] r[9]
 r[10] r[11] r[12] r[13] r[14] r[15] r[16] r[17] r[18] r[19] r[20] r[21]
 r[22] r[23] r[24] r[25] r[26] r[27] r[28] r[29] r[30] r[31] r[32] r[33]
 r[34] r[35] r[36] r[37] r[38] r[39] r[40] r[41] r[42] r[43] r[44] r[45]
 r[46] r[47] r[48] r[49] r[50] r[51] r[52] r[53] r[54] r[55] r[56] r[57]
 r[58] r[59] r[60] r[61] r[62] r[63] r[64] r[65] r[66] r[67] r[68] r[69]
End
