instances/knapsack/discrete/knapsack_70_8.kp
22997
70
337

7 0.7 100
16 1.6 76
98 9.8 2
67 6.7 70
84 8.4 99
49 4.9 75
49 4.9 63
23 2.3 37
61 6.1 72
50 5.0 64
51 5.1 69
15 1.5 61
56 5.6 41
100 10.0 76
8 0.8 89
12 1.2 62
49 4.9 64
80 8.0 24
29 2.9 44
30 3.0 91
77 7.7 39
19 1.9 37
24 2.4 90
58 5.8 10
32 3.2 23
72 7.2 16
22 2.2 62
7 0.7 85
29 2.9 48
31 3.1 58
69 6.9 87
83 8.3 54
19 1.9 30
85 8.5 13
92 9.2 29
45 4.5 87
76 7.6 7
24 2.4 33
40 4.0 20
90 9.0 29
83 8.3 66
77 7.7 51
10 1.0 47
33 3.3 93
59 5.9 100
70 7.0 5
37 3.7 94
73 7.3 74
7 0.7 74
92 9.2 31
94 9.4 97
96 9.6 32
29 2.9 85
16 1.6 95
56 5.6 66
27 2.7 4
93 9.3 52
6 0.6 62
64 6.4 98
50 5.0 93
28 2.8 98
46 4.6 64
27 2.7 7
46 4.6 63
39 3.9 24
52 5.2 15
96 9.6 39
82 8.2 15
44 4.4 70
85 8.5 51

74655
313

[0.3525766181874357 1.617923689060663 1.14406866375426 0.2657581053881168 3.0422907982841947 3.522019968392044 2.907810161996068 2.9509279354761255 0.49128075390576625 1.322190852952396 3.07869731512926 4.0235431762501115 2.655737055015381 3.213357558637287 4.287036634122251 4.4159249416698225 2.86044827968826 2.8538484315244323 0.9792671694479198 2.9870982349582573 2.7927751992664116 1.429070795823652 0.4768468421874055 1.2012197314828534 2.8257176885995996 0.11927350863479591 2.6111082074225442 4.15423917413303 2.1631407805510086 3.7345311775527867 2.310513949465956 0.8559431123303273 1.1686054242234454 3.314629238598449 3.0085053559933876 1.2582955166990442 3.5574391502337055 2.301291982919057 2.953439766394903 1.1007455585011678 1.0644615526177188 1.8300976389511834 3.692991423407081 3.4156062781808543 3.1436070368952547 1.3886413742520494 1.7493382393423955 3.974556065594518 2.288627929499777 0.3127775384177249 4.429091986570914 3.9896938435450275 0.13475589978943356 1.058073323921078 3.6618804951502093 0.29445479471617475 2.3232745296436743 2.527021660548626 4.422553935256564 3.318301806162044 4.46227676310413 2.5674607196120607 3.8340037699931955 3.88745091707359 2.1737286847358477 1.9639910602829223 1.373938646464644 3.5123793045671476 0.2518091642175201 3.340803390022656]

[80 33 91 8 9 18 46 64 94 19 20 76 81 73 65 57 14 45 86 71 6 16 25 71 9 29 59 24 18 92 90 52 16 66 57 46 49 9 13 95 36 50 75 42 8 43 98 14 64 21 27 81 66 13 97 60 22 63 9 55 5 7 64 23 64 85 1 39 85 86]
